49
29
0 29 30 32 34 35 36 37 38 39 40 43 44
1 29 30 31 32 34 35 36 39 43 44 47 48
2 29 30 32 33 34 36 37 38 39 40 43 45 47
3 30 31 34 35 38 39 42 43 45 47
4 29 30 31 32 34 35 36 37 38 39 40 43
5 30 31 32 33 36 39 42
6 29 30 31 32 34 36 37 38 39 43 45
7 34 35 36 37 38 39 48
8 29 32 38 40 42 44
9 30 31 32 33 35 36 38 39 40 43 45 47
10 30 32 33 34 35 36 39 40 42 43 45 47 48
11 31 34 36 38 39 42 43 44 45
12 30 31 35 38 40 42 43 44 45
13 32 33 36 45
14 29 32 33 35 41 42 47
15 30 32 34 37 39 42 44 46 48
16 30 31 34 37 39 40 43 45 47
17 31 32 34 40 42 43
18 37 38 39 40 43 44
19 32 35 36 42 44
20 29 30 33 34 37 47
21 30 31 32 33 37 38 39 47
22 30 31 35 38 39 40 42 45
23 39 43
24 32 35
25 32 35 38
26
27 31 46
28 47
